c SAT problem from the implication graph example
p cnf 17 14
c Top-level units at level 0
1 0
2 0
c Implications at level 1
-1 -3 4 0
-2 -4 5 0
c Implications at level 2
-4 -6 7 0
-5 -7 8 0
-8 9 0
c Implications at level 3
-10 11 0
c Implications at level 4
-11 -12 13 0
-4 -7 -13 14 0
-8 -9 -14 15 0
-13 16 0
-16 17 0
-15 -17 0
